p cnf 67 178
c t mc
-1 -2 -3 0
1 2 -3 0
-1 2 3 0
1 -2 3 0
7 -5 0
7 6 0
5 -6 -7 0
8 4 0
8 7 0
-4 -7 -8 0
9 10 -11 0
-9 -10 -11 0
9 -10 11 0
-9 10 11 0
-12 13 0
12 13 0
-14 11 0
-14 13 0
-11 -13 14 0
7 14 -15 0
-7 -14 -15 0
7 -14 15 0
-7 14 15 0
16 -8 0
16 -15 0
8 15 -16 0
-18 -1 0
-18 -17 0
1 17 18 0
-19 16 0
-19 -18 0
-16 18 19 0
-21 -20 0
-21 -1 0
20 1 21 0
23 -24 -25 0
-23 24 -25 0
23 24 25 0
-23 -24 25 0
-26 22 0
-26 -25 0
-22 25 26 0
-27 -21 0
-27 -26 0
21 26 27 0
29 28 0
29 17 0
-28 -17 -29 0
29 -30 -31 0
-29 30 -31 0
29 30 31 0
-29 -30 31 0
34 32 0
34 33 0
-32 -33 -34 0
35 34 0
35 -34 0
36 20 -37 0
-36 -20 -37 0
36 -20 37 0
-36 20 37 0
38 35 0
38 37 0
-35 -37 -38 0
-39 -14 0
-39 38 0
14 -38 39 0
41 39 0
41 40 0
-39 -40 -41 0
31 -41 -42 0
-31 41 -42 0
31 41 42 0
-31 -41 42 0
43 -27 0
43 42 0
27 -42 -43 0
45 4 0
45 -1 0
-4 1 -45 0
46 -44 0
46 -45 0
44 45 -46 0
47 46 0
47 -9 0
-46 9 -47 0
-24 44 -48 0
24 -44 -48 0
-24 -44 48 0
24 44 48 0
-49 -22 0
-49 20 0
22 -20 49 0
12 49 -50 0
-12 -49 -50 0
12 -49 50 0
-12 49 50 0
51 48 0
51 50 0
-48 -50 -51 0
9 52 -53 0
-9 -52 -53 0
9 -52 53 0
-9 52 53 0
-54 6 0
-54 17 0
-6 -17 54 0
53 54 -55 0
-53 -54 -55 0
53 -54 55 0
-53 54 55 0
51 55 -56 0
-51 -55 -56 0
51 -55 56 0
-51 55 56 0
57 47 0
57 56 0
-47 -56 -57 0
-58 4 0
-58 -29 0
-4 29 58 0
59 -34 0
59 35 0
34 -35 -59 0
32 -59 -60 0
-32 59 -60 0
32 59 60 0
-32 -59 60 0
61 58 0
61 -60 0
-58 60 -61 0
22 9 -62 0
-22 -9 -62 0
22 -9 62 0
-22 9 62 0
63 61 0
63 62 0
-61 -62 -63 0
64 -57 0
64 63 0
57 -63 -64 0
65 43 0
65 64 0
-43 -64 -65 0
66 -19 0
66 -65 0
19 65 -66 0
-67 -3 0
-67 -66 0
3 66 67 0
-29 -61 -45 0
-23 -47 54 -13 -64 3 52 -41 65 0
-55 -57 1 50 45 0
-46 25 0
33 19 -31 0
-50 16 -39 0
-42 56 12 39 -58 8 14 62 0
36 2 30 17 0
-67 -47 -21 -64 -12 55 -65 13 43 0
24 18 -16 -34 -41 0
15 16 0
23 52 43 -66 46 58 -67 -49 0
-66 18 -37 -44 64 -14 -24 0
-4 -53 0
50 14 -64 -32 -3 -28 25 0
28 4 57 37 9 -13 66 0
54 -22 -16 2 -5 32 -31 12 0
-60 -45 -34 24 9 0
28 53 -42 59 62 44 65 -30 45 7 0
-1 -22 -31 -23 41 47 -54 -57 12 0
-15 27 5 0
-64 -6 53 -20 -33 0
50 32 28 16 55 -12 0
31 24 52 -33 2 -12 0
-30 63 19 22 -31 66 -60 57 0
44 17 24 49 -47 -8 59 0
-9 -30 3 29 -56 -40 15 -51 -11 0
67 0
